\ Model GTSP_copy
\ LP format - for model browsing. Use MPS format to capture full model detail.
Minimize
 
Subject To
 R8: x[12,0] + x[12,1] + x[12,2] + x[12,3] + x[12,4] + x[12,5] + x[12,6]
   + x[12,7] + x[12,8] + x[12,9] + x[12,10] + x[12,11] + x[12,12]
   + x[12,13] + x[12,14] + x[13,0] + x[13,1] + x[13,2] + x[13,3] + x[13,4]
   + x[13,5] + x[13,6] + x[13,7] + x[13,8] + x[13,9] + x[13,10] + x[13,11]
   + x[13,12] + x[13,13] + x[13,14] + x[14,0] + x[14,1] + x[14,2] + x[14,3]
   + x[14,4] + x[14,5] + x[14,6] + x[14,7] + x[14,8] + x[14,9] + x[14,10]
   + x[14,11] + x[14,12] + x[14,13] + x[14,14] = 1
 R34: x[12,0] + x[12,1] + x[12,2] + x[12,3] + x[12,4] + x[12,5] + x[12,6]
   + x[12,7] + x[12,8] + x[12,9] + x[12,10] + x[12,11] + x[12,13]
   + x[12,14] = 1
 R38: x[14,0] + x[14,1] + x[14,2] + x[14,3] + x[14,4] + x[14,5] + x[14,6]
   + x[14,7] + x[14,8] + x[14,9] + x[14,10] + x[14,11] + x[14,12]
   + x[14,13] = 1
Bounds
Binaries
 x[12,0] x[12,1] x[12,2] x[12,3] x[12,4] x[12,5] x[12,6] x[12,7] x[12,8]
 x[12,9] x[12,10] x[12,11] x[12,12] x[12,13] x[12,14] x[13,0] x[13,1]
 x[13,2] x[13,3] x[13,4] x[13,5] x[13,6] x[13,7] x[13,8] x[13,9] x[13,10]
 x[13,11] x[13,12] x[13,13] x[13,14] x[14,0] x[14,1] x[14,2] x[14,3]
 x[14,4] x[14,5] x[14,6] x[14,7] x[14,8] x[14,9] x[14,10] x[14,11] x[14,12]
 x[14,13] x[14,14]
End
